Output/Sols/instance_1.sol
# Solution for instance_1
# Number of deliveries: 5
# Number of feasible trips generated: 12
# Number of trips selected: 3

Source: D3, total_km: 45.00, weight: 563.00, volume: 1.02
Deliveries: D3

Source: D0, total_km: 69.00, weight: 1508.00, volume: 1.37
Deliveries: D0, D1

Source: D2, total_km: 102.00, weight: 678.00, volume: 3.29
Deliveries: D2, D4

