Output/Logs/instance_1.log
Feasible trips for instance_1:
Source: D0, total_km: 96.00, total_weight: 587.00, total_volume: 0.70, score: 1.00
Deliveries: D0

Source: D1, total_km: 45.00, total_weight: 921.00, total_volume: 0.67, score: 1.00
Deliveries: D1

Source: D2, total_km: 96.00, total_weight: 303.00, total_volume: 1.45, score: 1.00
Deliveries: D2

Source: D3, total_km: 45.00, total_weight: 563.00, total_volume: 1.02, score: 1.00
Deliveries: D3

Source: D4, total_km: 79.00, total_weight: 375.00, total_volume: 1.84, score: 1.00
Deliveries: D4

Source: D0, total_km: 69.00, total_weight: 1508.00, total_volume: 1.37, score: 0.49
Deliveries: D0, D1

Source: D0, total_km: 102.00, total_weight: 962.00, total_volume: 2.54, score: 0.58
Deliveries: D0, D4

Source: D1, total_km: 92.00, total_weight: 1296.00, total_volume: 2.51, score: 0.74
Deliveries: D1, D4

Source: D2, total_km: 102.00, total_weight: 678.00, total_volume: 3.29, score: 0.58
Deliveries: D2, D4

Source: D0, total_km: 116.00, total_weight: 1883.00, total_volume: 3.21, score: 0.53
Deliveries: D0, D1, D4

Source: D0, total_km: 102.00, total_weight: 1265.00, total_volume: 3.99, score: 0.38
Deliveries: D0, D2, D4

Source: D1, total_km: 126.00, total_weight: 1599.00, total_volume: 3.96, score: 0.57
Deliveries: D1, D2, D4


Gurobi 12.0.3 (win64) logging started Mon Aug  4 19:00:07 2025

Set parameter LogFile to value "Output/Logs\instance_1.log"
Set parameter TimeLimit to value 3600
Set parameter Seed to value 12345
Gurobi Optimizer version 12.0.3 build v12.0.3rc0 (win64 - Windows 11.0 (26100.2))

CPU model: Intel(R) Core(TM) i5-10310U CPU @ 1.70GHz, instruction set [SSE2|AVX|AVX2]
Thread count: 4 physical cores, 8 logical processors, using up to 8 threads

Non-default parameters:
TimeLimit  3600
Seed  12345

Optimize a model with 5 rows, 12 columns and 22 nonzeros
Model fingerprint: 0xde0e0568
Variable types: 0 continuous, 12 integer (12 binary)
Coefficient statistics:
  Matrix range     [1e+00, 1e+00]
  Objective range  [4e-01, 1e+00]
  Bounds range     [1e+00, 1e+00]
  RHS range        [1e+00, 1e+00]
Found heuristic solution: objective 5.0000000
Presolve removed 1 rows and 1 columns
Presolve time: 0.00s
Presolved: 4 rows, 11 columns, 21 nonzeros
Variable types: 0 continuous, 11 integer (11 binary)

Root relaxation: objective 1.719236e+00, 3 iterations, 0.00 seconds (0.00 work units)

    Nodes    |    Current Node    |     Objective Bounds      |     Work
 Expl Unexpl |  Obj  Depth IntInf | Incumbent    BestBd   Gap | It/Node Time

     0     0    1.71924    0    3    5.00000    1.71924  65.6%     -    0s
H    0     0                       2.3763838    1.71924  27.7%     -    0s
H    0     0                       2.0722188    1.71924  17.0%     -    0s
     0     0    1.71924    0    3    2.07222    1.71924  17.0%     -    0s

Explored 1 nodes (3 simplex iterations) in 0.01 seconds (0.00 work units)
Thread count was 8 (of 8 available processors)

Solution count 3: 2.07222 2.37638 5 

Optimal solution found (tolerance 1.00e-04)
Best objective 2.072218844985e+00, best bound 2.072218844985e+00, gap 0.0000%
Selected trips for instance_1:
Trip 0: Source: D3, Total KM: 45.00, Weight: 563.00, Volume: 1.02, Deliveries: D3, Score: 1.00
Trip 1: Source: D0, Total KM: 69.00, Weight: 1508.00, Volume: 1.37, Deliveries: D0, D1, Score: 0.49
Trip 2: Source: D2, Total KM: 102.00, Weight: 678.00, Volume: 3.29, Deliveries: D2, D4, Score: 0.58
Deliveries count: 5
Feasible trips generated: 12
Trips selected: 3
Elapsed time (seconds): 0.02
